c colouring generated by benchmark framework
p edge 500 58862
v 1 30
v 2 0
v 3 96
v 4 69
v 5 96
v 6 80
v 7 18
v 8 38
v 9 17
v 10 39
v 11 11
v 12 65
v 13 35
v 14 107
v 15 62
v 16 6
v 17 14
v 18 107
v 19 102
v 20 98
v 21 3
v 22 82
v 23 106
v 24 70
v 25 51
v 26 52
v 27 6
v 28 81
v 29 92
v 30 17
v 31 17
v 32 74
v 33 14
v 34 8
v 35 45
v 36 90
v 37 88
v 38 6
v 39 45
v 40 4
v 41 47
v 42 17
v 43 125
v 44 78
v 45 20
v 46 91
v 47 14
v 48 41
v 49 25
v 50 25
v 51 125
v 52 25
v 53 4
v 54 100
v 55 5
v 56 86
v 57 4
v 58 53
v 59 66
v 60 118
v 61 79
v 62 32
v 63 97
v 64 89
v 65 88
v 66 86
v 67 103
v 68 30
v 69 55
v 70 45
v 71 11
v 72 123
v 73 37
v 74 77
v 75 53
v 76 76
v 77 114
v 78 3
v 79 24
v 80 19
v 81 111
v 82 23
v 83 44
v 84 3
v 85 11
v 86 85
v 87 82
v 88 50
v 89 12
v 90 69
v 91 32
v 92 109
v 93 36
v 94 108
v 95 47
v 96 37
v 97 77
v 98 26
v 99 95
v 100 12
v 101 124
v 102 96
v 103 61
v 104 55
v 105 13
v 106 25
v 107 84
v 108 0
v 109 73
v 110 70
v 111 18
v 112 61
v 113 8
v 114 92
v 115 121
v 116 110
v 117 126
v 118 49
v 119 68
v 120 52
v 121 0
v 122 67
v 123 40
v 124 22
v 125 101
v 126 47
v 127 7
v 128 10
v 129 15
v 130 39
v 131 1
v 132 113
v 133 113
v 134 114
v 135 24
v 136 49
v 137 24
v 138 2
v 139 116
v 140 43
v 141 62
v 142 32
v 143 3
v 144 57
v 145 83
v 146 56
v 147 110
v 148 3
v 149 121
v 150 41
v 151 107
v 152 3
v 153 51
v 154 15
v 155 22
v 156 109
v 157 101
v 158 115
v 159 85
v 160 105
v 161 43
v 162 28
v 163 99
v 164 4
v 165 116
v 166 35
v 167 20
v 168 48
v 169 60
v 170 58
v 171 41
v 172 102
v 173 63
v 174 111
v 175 40
v 176 108
v 177 65
v 178 54
v 179 78
v 180 23
v 181 31
v 182 23
v 183 19
v 184 94
v 185 42
v 186 44
v 187 33
v 188 60
v 189 59
v 190 17
v 191 112
v 192 36
v 193 8
v 194 78
v 195 92
v 196 95
v 197 103
v 198 71
v 199 89
v 200 33
v 201 36
v 202 108
v 203 20
v 204 0
v 205 63
v 206 35
v 207 42
v 208 72
v 209 50
v 210 63
v 211 48
v 212 71
v 213 109
v 214 5
v 215 20
v 216 43
v 217 66
v 218 46
v 219 87
v 220 72
v 221 8
v 222 8
v 223 9
v 224 11
v 225 117
v 226 41
v 227 29
v 228 10
v 229 102
v 230 62
v 231 21
v 232 117
v 233 10
v 234 68
v 235 12
v 236 37
v 237 94
v 238 65
v 239 4
v 240 63
v 241 2
v 242 18
v 243 21
v 244 57
v 245 64
v 246 73
v 247 0
v 248 126
v 249 58
v 250 84
v 251 5
v 252 7
v 253 99
v 254 96
v 255 72
v 256 121
v 257 19
v 258 1
v 259 40
v 260 53
v 261 8
v 262 21
v 263 57
v 264 33
v 265 104
v 266 52
v 267 18
v 268 88
v 269 115
v 270 1
v 271 7
v 272 38
v 273 13
v 274 35
v 275 33
v 276 80
v 277 75
v 278 120
v 279 26
v 280 16
v 281 125
v 282 59
v 283 21
v 284 7
v 285 85
v 286 116
v 287 81
v 288 70
v 289 85
v 290 58
v 291 44
v 292 29
v 293 94
v 294 104
v 295 64
v 296 7
v 297 76
v 298 121
v 299 67
v 300 12
v 301 61
v 302 60
v 303 126
v 304 49
v 305 108
v 306 91
v 307 10
v 308 30
v 309 5
v 310 2
v 311 112
v 312 73
v 313 81
v 314 75
v 315 122
v 316 24
v 317 4
v 318 105
v 319 63
v 320 22
v 321 39
v 322 40
v 323 9
v 324 69
v 325 104
v 326 6
v 327 10
v 328 50
v 329 6
v 330 106
v 331 79
v 332 125
v 333 66
v 334 93
v 335 50
v 336 75
v 337 93
v 338 74
v 339 103
v 340 94
v 341 72
v 342 93
v 343 89
v 344 27
v 345 116
v 346 44
v 347 34
v 348 61
v 349 71
v 350 124
v 351 104
v 352 83
v 353 32
v 354 119
v 355 54
v 356 5
v 357 118
v 358 89
v 359 24
v 360 59
v 361 90
v 362 64
v 363 97
v 364 112
v 365 35
v 366 38
v 367 76
v 368 64
v 369 79
v 370 28
v 371 68
v 372 98
v 373 49
v 374 22
v 375 19
v 376 79
v 377 80
v 378 29
v 379 33
v 380 122
v 381 13
v 382 80
v 383 83
v 384 13
v 385 114
v 386 65
v 387 120
v 388 105
v 389 14
v 390 48
v 391 102
v 392 106
v 393 95
v 394 46
v 395 65
v 396 97
v 397 46
v 398 93
v 399 39
v 400 75
v 401 67
v 402 100
v 403 51
v 404 9
v 405 42
v 406 77
v 407 2
v 408 31
v 409 17
v 410 23
v 411 86
v 412 97
v 413 38
v 414 12
v 415 68
v 416 58
v 417 115
v 418 90
v 419 46
v 420 111
v 421 43
v 422 81
v 423 44
v 424 1
v 425 57
v 426 47
v 427 34
v 428 113
v 429 1
v 430 27
v 431 123
v 432 100
v 433 91
v 434 100
v 435 26
v 436 29
v 437 1
v 438 74
v 439 34
v 440 98
v 441 22
v 442 9
v 443 76
v 444 111
v 445 59
v 446 56
v 447 60
v 448 107
v 449 14
v 450 26
v 451 56
v 452 69
v 453 92
v 454 27
v 455 86
v 456 101
v 457 87
v 458 87
v 459 82
v 460 99
v 461 55
v 462 9
v 463 31
v 464 6
v 465 110
v 466 67
v 467 20
v 468 12
v 469 11
v 470 48
v 471 51
v 472 103
v 473 41
v 474 16
v 475 78
v 476 13
v 477 27
v 478 16
v 479 101
v 480 15
v 481 82
v 482 70
v 483 106
v 484 69
v 485 105
v 486 34
v 487 66
v 488 45
v 489 62
v 490 90
v 491 84
v 492 99
v 493 56
v 494 28
v 495 18
v 496 43
v 497 106
v 498 118
v 499 54
v 500 55
